Route #1: 27 59 95 17 31 28 39 50 52
Route #2: 58 12 41 21 75 88 96 54 68
Route #3: 19 63 72 10 86 100 62 8 49
Route #4: 40 47 48 82 107 57 13 23
Route #5: 70 44 81 94 37 7 35 73
Route #6: 1 90 16 29 78 74 32 79
Route #7: 91 38 108 3 14
Route #8: 45 34 67 106 42 97 92 20 105
Route #9: 6 77 11 85 51 89 46 5
Route #10: 98 66 15 53 26 87 84 18 109
Route #11: 56 102 33 9 101 4 24 103 25 69
Route #12: 30 55 76 83 22 61 60 104 93 71
Route #13: 80 2 43 64 36 65 99
